74, 5365
8478, 51
10741, 33
6399, 57
6084, 56
3109, 22
6902, 65
9707, 24
9316, 15
7565, 85
3344, 26
8234, 78
10163, 95
7082, 8
2776, 54
5522, 81
3310, 18
6336, 1
3453, 45
5550, 63
11750, 88
4210, 22
5663, 27
6659, 57
9534, 59
9288, 83
8589, 65
4680, 57
8470, 52
11519, 44
8428, 49
9175, 95
4482, 94
11840, 96
5912, 27
3931, 34
11468, 56
10603, 86
4804, 47
9320, 1
11486, 19
2679, 24
5862, 92
5351, 59
5264, 17
9766, 34
6966, 91
8469, 2
10097, 58
6210, 39
5355, 43
12275, 48
2853, 40
6831, 98
5954, 5
4045, 88
3932, 39
7301, 26
7914, 86
4541, 72
9548, 2
7158, 56
4604, 93
6925, 62
6352, 69
8414, 82
12121, 63
3056, 35
2834, 51
12129, 0
9611, 15
10136, 5
3805, 36
11268, 78
8302, 88